(set-logic QF_FPABV)
(declare-fun b181 () (_ FP 8 24))
(declare-fun b45 () (_ FP 8 24))
(declare-fun b36 () (_ FP 8 24))
(declare-fun b188 () (_ FP 8 24))
(declare-fun b129 () (_ FP 8 24))
(declare-fun b55 () (_ FP 11 53))
(declare-fun b77 () (_ FP 11 53))
(declare-fun b202 () (_ FP 8 24))
(declare-fun b68 () (_ FP 11 53))
(declare-fun b186 () (_ FP 8 24))
(declare-fun b126 () (_ FP 8 24))
(declare-fun b38 () (_ FP 8 24))
(declare-fun b197 () (_ FP 8 24))
(define-fun .3 () RoundingMode roundNearestTiesToEven)
(define-fun .9 () (_ FP 8 24) b36)
(define-fun .10 () (_ FP 8 24) (* .3 .9 .9))
(define-fun .11 () (_ FP 8 24) (- .10))
(define-fun .12 () (_ FP 8 24) (* .3 .9 .11))
(define-fun .13 () (_ FP 11 53) ((_ asFloat 11 53) .3 .12))
(define-fun .14 () (_ FP 11 53) b55)
(define-fun .15 () (_ FP 11 53) (/ .3 .13 .14))
(define-fun .16 () (_ FP 8 24) ((_ asFloat 8 24) .3 .15))
(define-fun .17 () (_ FP 8 24) b202)
(define-fun .18 () Bool (= .16 .17))
(define-fun .19 () Bool (not .18))
(define-fun .20 () (_ FP 8 24) (* .3 .11 .16))
(define-fun .21 () (_ FP 11 53) ((_ asFloat 11 53) .3 .20))
(define-fun .22 () (_ FP 11 53) b77)
(define-fun .23 () (_ FP 11 53) (/ .3 .21 .22))
(define-fun .24 () (_ FP 8 24) ((_ asFloat 8 24) .3 .23))
(define-fun .25 () (_ FP 8 24) b197)
(define-fun .26 () Bool (= .24 .25))
(define-fun .27 () Bool (not .26))
(define-fun .28 () (_ FP 8 24) (+ .3 .9 .16))
(define-fun .29 () (_ FP 8 24) (+ .3 .24 .28))
(define-fun .30 () (_ FP 8 24) b186)
(define-fun .31 () Bool (= .29 .30))
(define-fun .32 () Bool (not .31))
(define-fun .33 () (_ FP 8 24) b188)
(define-fun .34 () Bool (= .30 .33))
(define-fun .35 () Bool (not .34))
(define-fun .36 () (_ FP 8 24) b181)
(define-fun .37 () Bool (= .9 .36))
(define-fun .38 () Bool (not .37))
(define-fun .39 () (_ FP 8 24) b38)
(define-fun .40 () Bool (<= .39 .9))
(define-fun .41 () Bool (not .40))
(define-fun .42 () (_ FP 8 24) (- .9))
(define-fun .43 () Bool (= .36 .42))
(define-fun .44 () Bool (and .41 .43))
(define-fun .45 () Bool (and .38 .44))
(define-fun .46 () Bool (<= .39 .30))
(define-fun .47 () Bool (not .46))
(define-fun .48 () Bool (and .45 .47))
(define-fun .49 () (_ FP 8 24) (- .30))
(define-fun .50 () Bool (= .33 .49))
(define-fun .51 () Bool (and .48 .50))
(define-fun .52 () Bool (and .35 .51))
(define-fun .53 () (_ FP 11 53) ((_ asFloat 11 53) .3 .17))
(define-fun .54 () (_ FP 11 53) b68)
(define-fun .55 () Bool (<= .54 .53))
(define-fun .56 () Bool (not .55))
(define-fun .57 () Bool (and .52 .56))
(define-fun .58 () Bool (= .28 .30))
(define-fun .59 () Bool (and .57 .58))
(define-fun .60 () (_ FP 8 24) b45)
(define-fun .61 () Bool (<= .33 .60))
(define-fun .62 () Bool (not .61))
(define-fun .63 () Bool (and .59 .62))
(define-fun .64 () (_ FP 8 24) b129)
(define-fun .65 () Bool (<= .36 .64))
(define-fun .66 () Bool (and .63 .65))
(define-fun .67 () (_ FP 8 24) b126)
(define-fun .68 () Bool (<= .67 .9))
(define-fun .69 () Bool (and .66 .68))
(define-fun .70 () Bool (<= .9 .64))
(define-fun .71 () Bool (and .69 .70))
(define-fun .72 () Bool (and .32 .71))
(define-fun .73 () Bool (<= .39 .24))
(define-fun .74 () Bool (not .73))
(define-fun .75 () Bool (and .72 .74))
(define-fun .76 () (_ FP 8 24) (- .24))
(define-fun .77 () Bool (= .25 .76))
(define-fun .78 () Bool (and .75 .77))
(define-fun .79 () Bool (and .27 .78))
(define-fun .80 () Bool (<= .39 .16))
(define-fun .81 () Bool (not .80))
(define-fun .82 () Bool (and .79 .81))
(define-fun .83 () (_ FP 8 24) (- .16))
(define-fun .84 () Bool (= .17 .83))
(define-fun .85 () Bool (and .82 .84))
(define-fun .86 () (_ FP 11 53) ((_ asFloat 11 53) .3 .25))
(define-fun .87 () Bool (<= .54 .86))
(define-fun .88 () Bool (not .87))
(define-fun .89 () Bool (and .85 .88))
(define-fun .90 () Bool (and .19 .89))
(assert .90)
(check-sat)
